solution status: optimal solution found
objective value:                                   29
x45                                                 1 	(obj:1)
x46                                                 1 	(obj:1)
x47                                                 1 	(obj:1)
x48                                                 1 	(obj:1)
x49                                                 1 	(obj:1)
x51                                                 1 	(obj:1)
x53                                                 1 	(obj:1)
x58                                                 1 	(obj:1)
x62                                                 1 	(obj:1)
x63                                                 1 	(obj:1)
x66                                                 1 	(obj:1)
x67                                                 1 	(obj:1)
x68                                                 1 	(obj:1)
x70                                                 1 	(obj:1)
x75                                                 1 	(obj:1)
x76                                                 1 	(obj:1)
x78                                                 1 	(obj:1)
x79                                                 1 	(obj:1)
x86                                                 1 	(obj:1)
x88                                                 1 	(obj:1)
x90                                                 1 	(obj:1)
x92                                                 1 	(obj:1)
x96                                                 1 	(obj:1)
x97                                                 1 	(obj:1)
x98                                                 1 	(obj:1)
x99                                                 1 	(obj:1)
x101                                                1 	(obj:1)
x119                                                1 	(obj:1)
x121                                                1 	(obj:1)
thing.bead_trap_ctrl_hole_y                        14 	(obj:0)
thing.bead_trap_ctrl_hole_z                        23 	(obj:0)
thing.thing.chamber[0].thingy.v12_y                   18 	(obj:0)
thing.thing.chamber[0].thingy.v12_z                   19 	(obj:0)
thing.thing.chamber[2].thingy.r1c_y                   15 	(obj:0)
thing.thing.chamber[2].thingy.r1c_z                   18 	(obj:0)
thing.thing.dead_bead_y                            22 	(obj:0)
thing.thing.dead_bead_z                            18 	(obj:0)
thing.thing.dead_cell_y                            22 	(obj:0)
thing.thing.dead_cell_z                            20 	(obj:0)
thing.thing.chamber[2].thingy.v10_y                   18 	(obj:0)
thing.thing.chamber[2].thingy.v10_z                   20 	(obj:0)
thing.pump2_hole_y                                 11 	(obj:0)
thing.pump2_hole_z                                 21 	(obj:0)
thing.thing.chamber[2].thingy.r2c_y                   18 	(obj:0)
thing.thing.chamber[2].thingy.r2c_z                   18 	(obj:0)
thing.thing.chamber[1].thingy.r1c_y                   14 	(obj:0)
thing.thing.chamber[1].thingy.r1c_z                   17 	(obj:0)
thing.thing.chamber[1].thingy.v13_y                   19 	(obj:0)
thing.thing.chamber[1].thingy.v13_z                   17 	(obj:0)
thing.thing.dead_buffer_y                          19 	(obj:0)
thing.thing.dead_buffer_z                          20 	(obj:0)
thing.bead_flush_hole_y                            20 	(obj:0)
thing.bead_flush_hole_z                            22 	(obj:0)
thing.thing.chamber[2].thingy.v11_y                   22 	(obj:0)
thing.thing.chamber[2].thingy.v11_z                   19 	(obj:0)
thing.thing.chamber[1].thingy.p0_y                   16 	(obj:0)
thing.thing.chamber[1].thingy.p0_z                   21 	(obj:0)
thing.thing.chamber[0].thingy.p1_y                   12 	(obj:0)
thing.thing.chamber[0].thingy.p1_z                   18 	(obj:0)
thing.thing.chamber[1].thingy.v12_y                   18 	(obj:0)
thing.thing.chamber[1].thingy.v12_z                   17 	(obj:0)
thing.thing.chamber[1].thingy.p2_y                   15 	(obj:0)
thing.thing.chamber[1].thingy.p2_z                   21 	(obj:0)
thing.horiz_flush_hole_y                           19 	(obj:0)
thing.horiz_flush_hole_z                           16 	(obj:0)
thing.thing.chamber[2].thingy.p0_y                   14 	(obj:0)
thing.thing.chamber[2].thingy.p0_z                   21 	(obj:0)
thing.thing.chamber[0].thingy.v13_y                   17 	(obj:0)
thing.thing.chamber[0].thingy.v13_z                   19 	(obj:0)
thing.thing.chamber[2].thingy.r4c_y                   18 	(obj:0)
thing.thing.chamber[2].thingy.r4c_z                   21 	(obj:0)
thing.pump0_hole_y                                 12 	(obj:0)
thing.pump0_hole_z                                 17 	(obj:0)
